 vasp.4.6.34 5Dec07 complex
 executed on             LinuxIFC date 2011.10.27  09:51:39

 INCAR:
 POTCAR:   PAW_PBE Pb 08Apr2002
 POTCAR:   PAW_PBE Si 05Jan2001
 POTCAR:   PAW_PBE Pb 08Apr2002
   VRHFIN =Pb:

   TITEL  = PAW_PBE Pb 08Apr2002
   POMASS =  207.200; ZVAL   =    4.000    mass and valenz
   ENMAX  =   97.973; ENMIN  =   73.480 eV
   QCUT   =   -2.683; QGAM   =    5.367    optimization parameters

   Description
     l     E      TYP  RCUT    TYP  RCUT
     0   .000     23  3.100
     0   .000     23  3.100
     1   .000     23  3.100
     1  -.400     23  3.100
     2  -.100     23  3.100
     3  -.100     23  3.100

 POTCAR:   PAW_PBE Si 05Jan2001
   VRHFIN =Si: s2p2

   TITEL  = PAW_PBE Si 05Jan2001
   POMASS =   28.085; ZVAL   =    4.000    mass and valenz
   ENMAX  =  245.345; ENMIN  =  184.009 eV
   QCUT   =   -4.246; QGAM   =    8.493    optimization parameters

   Description
     l     E      TYP  RCUT    TYP  RCUT
     0   .000     23  1.900
     0   .000     23  1.900
     1   .000     23  1.900
     1   .000     23  1.900
     2   .000      7  1.900

 PAW_PBE Pb 08Apr2002                   :
 PAW_PBE Si 05Jan2001                   :

 POSCAR:  Si(103)
  positions in direct lattice
  velocities in cartesian coordinates

 ion  position               nearest neighbor table
   1  0.781  0.683  0.069-   2 3.10   6 3.13   5 3.13  17 3.33  13 3.55   6 3.61   4 3.89
   2  0.521  0.825  0.068-  13 2.83   1 3.10   3 3.35   6 3.37   4 3.44   4 3.58
   3  0.179  0.576  0.070-  14 2.79   2 3.35   5 3.43   5 3.58   6 3.64   4 3.68
   4  0.413  0.260  0.070-  15 2.79   5 3.33   2 3.44   2 3.58   3 3.68   1 3.89
   5  0.071  0.034  0.067-  16 2.80   1 3.13   6 3.31   4 3.33   3 3.43   3 3.58
   6  0.817  0.238  0.070-  17 2.96   1 3.13   5 3.31   2 3.37   1 3.61   3 3.64
   7  0.183  0.548  0.517-  68 2.79   9 3.33  11 3.47  11 3.54  10 3.74  12 3.89
   8  0.783  0.579  0.517-  69 3.01  12 3.11   9 3.28  11 3.33  12 3.61  10 3.69
   9  0.526  0.768  0.520-  70 2.79  12 3.15   8 3.28   7 3.33  10 3.44  10 3.56
  10  0.421  0.225  0.517-  71 2.79  11 3.36   9 3.44   9 3.56   8 3.69   7 3.74
  11  0.076  0.989  0.520-  72 2.81  12 3.13   8 3.33  10 3.36   7 3.47   7 3.54
  12  0.814  0.133  0.518-   8 3.11  11 3.13   9 3.15  69 3.24   8 3.61   7 3.89
  13  0.598  0.798  0.000-  21 2.37  18 2.37  20 2.37   2 2.83   1 3.55
  14  0.200  0.596  0.001-  19 2.37  22 2.37  21 2.38   3 2.79
  15  0.399  0.200  0.001-  18 2.37  22 2.37  21 2.38   4 2.79
  16  0.003  0.998  1.000-  19 2.36  22 2.37  20 2.38   5 2.80
  17  0.801  0.399  0.002-  19 2.38  20 2.39  18 2.39   6 2.96   1 3.33
  18  0.600  0.463  0.981-  15 2.37  13 2.37  25 2.38  17 2.39
  19  0.001  0.662  0.981-  16 2.36  14 2.37  27 2.37  17 2.38
  20  0.800  0.065  0.981-  13 2.37  16 2.38  26 2.38  17 2.39
  21  0.398  0.866  0.981-  23 2.37  13 2.37  14 2.38  15 2.38
  22  0.202  0.267  0.980-  24 2.36  16 2.37  14 2.37  15 2.37
  23  0.399  0.866  0.922-  31 2.37  21 2.37  32 2.37  29 2.37
  24  0.201  0.267  0.921-  22 2.36  29 2.37  31 2.37  30 2.37
  25  0.601  0.466  0.922-  28 2.37  32 2.37  29 2.38  18 2.38
  26  0.800  0.065  0.922-  28 2.37  30 2.37  32 2.37  20 2.38
  27  0.999  0.664  0.922-  30 2.37  28 2.37  19 2.37  31 2.37
  28  0.800  0.732  0.902-  25 2.37  27 2.37  26 2.37  33 2.37
  29  0.401  0.534  0.902-  24 2.37  36 2.37  23 2.37  25 2.38
  30  1.000  0.331  0.902-  27 2.37  34 2.37  24 2.37  26 2.37
  31  0.199  0.932  0.902-  37 2.37  24 2.37  23 2.37  27 2.37
  32  0.600  0.132  0.902-  25 2.37  23 2.37  26 2.37  35 2.38
  33  0.800  0.733  0.843-  39 2.37  40 2.37  42 2.37  28 2.37
  34  0.000  0.333  0.843-  39 2.37  38 2.37  42 2.37  30 2.37
  35  0.600  0.133  0.843-  41 2.37  40 2.37  39 2.37  32 2.38
  36  0.400  0.533  0.843-  40 2.37  41 2.37  38 2.37  29 2.37
  37  0.200  0.933  0.843-  31 2.37  38 2.37  41 2.37  42 2.37
  38  0.200  0.600  0.823-  34 2.37  37 2.37  36 2.37  44 2.37
  39  0.800  0.400  0.823-  34 2.37  33 2.37  35 2.37  47 2.37
  40  0.600  0.800  0.823-  43 2.37  36 2.37  35 2.37  33 2.37
  41  0.400  0.200  0.823-  35 2.37  36 2.37  37 2.37  45 2.37
  42  0.000  0.000  0.823-  34 2.37  37 2.37  33 2.37  46 2.37
  43  0.601  0.800  0.764-  40 2.37  51 2.37  50 2.37  48 2.37
  44  0.200  0.599  0.764-  52 2.37  38 2.37  51 2.37  49 2.37
  45  0.400  0.200  0.764-  51 2.37  41 2.37  48 2.37  52 2.37
  46  1.000  0.999  0.764-  52 2.37  42 2.37  50 2.37  49 2.37
  47  0.800  0.399  0.764-  48 2.37  49 2.37  39 2.37  50 2.37
  48  0.600  0.466  0.744-  55 2.37  47 2.37  43 2.37  45 2.37
  49  1.000  0.666  0.744-  47 2.37  46 2.37  57 2.37  44 2.37
  50  0.800  0.066  0.744-  43 2.37  46 2.37  56 2.37  47 2.37
  51  0.401  0.866  0.744-  53 2.36  43 2.37  45 2.37  44 2.37
  52  0.199  0.265  0.744-  54 2.37  46 2.37  44 2.37  45 2.37
  53  0.401  0.867  0.686-  51 2.36  61 2.37  59 2.37  62 2.37
  54  0.199  0.265  0.685-  59 2.36  52 2.37  61 2.37  60 2.37
  55  0.601  0.467  0.685-  62 2.37  48 2.37  59 2.37  58 2.37
  56  0.800  0.066  0.685-  60 2.37  62 2.37  50 2.37  58 2.37
  57  0.000  0.667  0.685-  60 2.37  61 2.37  49 2.37  58 2.37
  58  0.800  0.733  0.665-  56 2.37  55 2.37  57 2.37  63 2.39
  59  0.399  0.532  0.666-  66 2.36  54 2.36  53 2.37  55 2.37
  60  0.999  0.333  0.665-  56 2.37  57 2.37  54 2.37  64 2.38
  61  0.202  0.933  0.666-  53 2.37  67 2.37  54 2.37  57 2.37
  62  0.601  0.135  0.665-  55 2.37  56 2.37  65 2.37  53 2.37
  63  0.800  0.733  0.605-  72 2.38  70 2.38  58 2.39  69 2.39
  64  0.001  0.335  0.606-  68 2.37  72 2.37  60 2.38  69 2.39
  65  0.599  0.136  0.606-  70 2.36  71 2.37  62 2.37  69 2.38
  66  0.398  0.531  0.607-  59 2.36  70 2.37  71 2.37  68 2.37
  67  0.203  0.932  0.607-  61 2.37  72 2.37  68 2.38  71 2.38
  68  0.201  0.599  0.586-  64 2.37  66 2.37  67 2.38   7 2.79
  69  0.800  0.397  0.585-  65 2.38  64 2.39  63 2.39   8 3.01  12 3.24
  70  0.596  0.800  0.587-  65 2.36  66 2.37  63 2.38   9 2.79
  71  0.401  0.202  0.586-  65 2.37  66 2.37  67 2.38  10 2.79
  72  0.003  0.001  0.587-  67 2.37  64 2.37  63 2.38  11 2.81

 RWIGS
   1.72500000000000        1.31200000000000       6.953166219485749E-310
  2.088522697216097E-317  4.061857556629459E-307  2.088387817294782E-317
  6.916911580058941E-310  2.088252937373467E-317  4.061857412040441E-307
  2.088118057452153E-317  4.468342343393139E-310  2.087983177530838E-317
  4.061857557305154E-307  2.087848297609523E-317  2.176538804034332E+059
  2.087703536375292E-317  4.061857358779683E-307  2.087539012515227E-317
  4.061857358779683E-307  2.087212435123326E-317  4.061857358779683E-307
  2.087077061136365E-317  4.468342304449649E-310  2.086942181215051E-317
  4.468342346707479E-310  2.086781609880152E-317  0.000000000000000E+000
  0.000000000000000E+000  0.000000000000000E+000  0.000000000000000E+000
  0.000000000000000E+000  0.000000000000000E+000  0.000000000000000E+000
  0.000000000000000E+000  0.000000000000000E+000  0.000000000000000E+000
  0.000000000000000E+000  0.000000000000000E+000  0.000000000000000E+000
  0.000000000000000E+000  0.000000000000000E+000  0.000000000000000E+000
  0.000000000000000E+000  0.000000000000000E+000  0.000000000000000E+000
  0.000000000000000E+000  0.000000000000000E+000  0.000000000000000E+000
  0.000000000000000E+000  0.000000000000000E+000  0.000000000000000E+000
  0.000000000000000E+000  0.000000000000000E+000  0.000000000000000E+000
  0.000000000000000E+000  0.000000000000000E+000  0.000000000000000E+000
  0.000000000000000E+000  0.000000000000000E+000  0.000000000000000E+000
  0.000000000000000E+000  0.000000000000000E+000  0.000000000000000E+000
  0.000000000000000E+000  0.000000000000000E+000  0.000000000000000E+000
  0.000000000000000E+000  0.000000000000000E+000  0.000000000000000E+000
  0.000000000000000E+000  0.000000000000000E+000  0.000000000000000E+000
 RWIGS_MIN
   1.57440006256104

  Warning from LATTYP: Monoclinic adjustement (A1->A3, A2->A1, A3->A2)!
  Warning from LATTYP: Got some problem with cell dimensions!
  Tried to take original basis but could not verify dimensions!
  LATTYP: Found a simple monoclinic cell.
 ALAT       =    10.2241128559
 B/A-ratio  =     3.9264824798
 C/A-ratio  =     1.8898202167
 COS(beta)  =    -0.9449113114

  Lattice vectors:

 A1 = (  -9.6608675864,  -3.3466582090,   0.0000000000)
 A2 = (   0.0000000000,   0.0000000000, -40.1448000000)
 A3 = (  19.3217351729,   0.0000710162,   0.0000000000)
 Subroutine PRICEL returns:
 Original cell was already a primitive cell.

Analysis of symmetry for initial positions (statically):

 Routine SETGRP: Setting up the symmetry group for a
 simple monoclinic supercell.

 Subroutine GETGRP returns: Found  1 space group operations
 (whereof  1 operations were pure point group operations)
 out of a pool of  4 trial point group operations.

The static configuration has the point symmetry C_1 .

Analysis of symmetry for dynamics (positions and initial velocities):

 Subroutine DYNSYM returns: Found  1 space group operations
 (whereof  1 operations were pure point group operations)
 out of a pool of  1 trial space group operations
 (whereof  1 operations were pure point group operations)
 and found also     1 'primitive' translations

The dynamic configuration has the point symmetry C_1 .

Analysis of constrained symmetry for selective dynamics:

 Subroutine DYNSYM returns: Found  1 space group operations
 (whereof  1 operations were pure point group operations)
 out of a pool of  1 trial space group operations
 (whereof  1 operations were pure point group operations)
 and found also     1 'primitive' translations

The constrained configuration has the point symmetry C_1 .

 KPOINTS: Automatic generatic

Automatic generation of k-mesh.

 Subroutine IBZKPT returns following result:

 Found     18 irreducible k-points:

 Following reciprocal coordinates:
            Coordinates               Weight
  0.000000  0.000000  0.000000      1.000000
  0.200000  0.000000  0.000000      2.000000
  0.400000  0.000000  0.000000      2.000000
  0.000000  0.142857  0.000000      2.000000
  0.200000  0.142857  0.000000      2.000000
  0.400000  0.142857  0.000000      2.000000
 -0.400000  0.142857  0.000000      2.000000
 -0.200000  0.142857  0.000000      2.000000
  0.000000  0.285714  0.000000      2.000000
  0.200000  0.285714  0.000000      2.000000
  0.400000  0.285714  0.000000      2.000000
 -0.400000  0.285714  0.000000      2.000000
 -0.200000  0.285714  0.000000      2.000000
  0.000000  0.428571  0.000000      2.000000
  0.200000  0.428571  0.000000      2.000000
  0.400000  0.428571  0.000000      2.000000
 -0.400000  0.428571  0.000000      2.000000
 -0.200000  0.428571  0.000000      2.000000

 Following cartesian coordinates:
            Coordinates               Weight
  0.000000  0.000000  0.000000      1.000000
  0.020777  0.000000  0.000000      2.000000
  0.041554  0.000000  0.000000      2.000000
  0.007420  0.021421  0.000000      2.000000
  0.028197  0.021421  0.000000      2.000000
  0.048974  0.021421  0.000000      2.000000
 -0.034134  0.021421  0.000000      2.000000
 -0.013357  0.021421  0.000000      2.000000
[...]

 VOLUME and BASIS-vectors are now :
  energy-cutoff  :      245.34
  volume of cell :     2595.87
      direct lattice vectors                 reciprocal lattice vectors
     9.660867586 -3.346587193  0.000000000     0.103510372  0.000000000  0.000000000
     0.000000000  6.693245402  0.000000000     0.051754637  0.149404353  0.000000000
     0.000000000  0.000000000 40.144800000     0.000000000  0.000000000  0.024909826

  length of vectors
    10.224089610  6.693245402 40.144800000     0.103510372  0.158114526  0.024909826

 FORCES acting on ions
    electron-ion (+dipol)            ewald-force                    non-local-force                 convergence-correction
   0.311E+00 0.344E+01 -.586E+03   -.364E+00 -.368E+01 0.587E+03   0.593E-01 0.256E+00 -.877E+00   -.322E-02 -.558E-02 0.283E-01
   0.733E+01 -.371E+01 -.590E+03   -.770E+01 0.397E+01 0.591E+03   0.359E+00 -.267E+00 -.103E+01   0.898E-02 -.391E-03 0.251E-01
   0.825E+00 -.365E+01 -.590E+03   -.102E+01 0.400E+01 0.592E+03   0.201E+00 -.350E+00 -.202E+01   -.702E-02 0.232E-02 0.347E-01
   -.218E+01 0.769E+00 -.590E+03   0.262E+01 -.753E+00 0.592E+03   -.448E+00 -.129E-01 -.201E+01   0.125E-01 0.113E-02 0.342E-01
   -.747E+01 0.330E+01 -.590E+03   0.783E+01 -.356E+01 0.591E+03   -.360E+00 0.264E+00 -.108E+01   -.713E-02 -.182E-02 0.256E-01
   0.607E+00 -.639E+00 -.588E+03   -.772E+00 0.781E+00 0.590E+03   0.162E+00 -.145E+00 -.154E+01   -.435E-02 0.402E-02 0.322E-01
   0.190E+01 -.114E+01 0.590E+03   -.230E+01 0.115E+01 -.592E+03   0.409E+00 -.164E-01 0.203E+01   -.161E-01 0.703E-02 0.140E+00
   -.690E+00 0.523E+00 0.588E+03   0.847E+00 -.634E+00 -.590E+03   -.159E+00 0.120E+00 0.143E+01   0.118E-02 -.176E-01 0.157E+00
   0.772E+01 -.290E+01 0.590E+03   -.812E+01 0.316E+01 -.591E+03   0.405E+00 -.257E+00 0.105E+01   -.107E-01 -.132E-02 0.148E+00
   -.426E+00 0.300E+01 0.590E+03   0.629E+00 -.329E+01 -.592E+03   -.203E+00 0.304E+00 0.206E+01   0.387E-02 -.650E-02 0.142E+00
   -.743E+01 0.326E+01 0.590E+03   0.781E+01 -.354E+01 -.591E+03   -.386E+00 0.273E+00 0.103E+01   0.956E-02 0.873E-03 0.146E+00
   -.569E+00 -.236E+01 0.586E+03   0.600E+00 0.251E+01 -.587E+03   -.453E-01 -.169E+00 0.966E+00   0.125E-01 0.183E-01 0.156E+00
   -.252E+00 0.555E+00 -.511E+03   0.113E-01 -.460E+00 0.510E+03   0.218E+00 -.952E-01 0.107E+01   0.135E-01 -.850E-03 -.165E+00
   -.132E+01 -.111E+01 -.516E+03   0.108E+01 0.994E+00 0.516E+03   0.237E+00 0.109E+00 0.187E+00   0.137E-02 0.254E-03 -.167E+00
   0.132E+00 0.222E+01 -.516E+03   -.153E+00 -.192E+01 0.516E+03   0.492E-02 -.301E+00 0.205E+00   0.143E-01 0.175E-02 -.166E+00
   0.983E+00 0.198E+00 -.509E+03   -.540E+00 -.369E+00 0.509E+03   -.435E+00 0.167E+00 0.812E+00   -.458E-02 0.201E-02 -.170E+00
   0.101E+01 -.105E+01 -.518E+03   -.857E+00 0.104E+01 0.517E+03   -.158E+00 0.621E-02 0.151E+01   0.528E-03 0.986E-03 -.157E+00
   -.937E+00 0.136E+01 -.459E+03   0.380E+00 -.135E+01 0.459E+03   0.552E+00 -.600E-02 0.190E+00   0.343E-02 -.877E-03 -.195E+00
   0.792E+00 0.122E+01 -.458E+03   -.332E+00 -.104E+01 0.458E+03   -.443E+00 -.174E+00 0.181E+00   -.154E-01 -.181E-02 -.197E+00
   0.362E+00 -.717E+00 -.458E+03   -.413E+00 0.626E+00 0.458E+03   0.625E-01 0.940E-01 0.405E+00   -.813E-02 0.126E-02 -.193E+00
   0.104E+01 -.126E+01 -.458E+03   -.890E+00 0.109E+01 0.458E+03   -.153E+00 0.175E+00 0.309E+00   0.379E-02 -.169E-02 -.202E+00
   -.122E+01 -.572E+00 -.455E+03   0.112E+01 0.508E+00 0.455E+03   0.107E+00 0.680E-01 0.273E+00   -.942E-02 -.182E-02 -.205E+00
   -.468E+00 -.305E-01 -.314E+03   0.378E+00 0.854E-01 0.315E+03   0.741E-01 -.584E-01 -.312E+00   0.891E-02 0.335E-03 -.280E+00
   -.228E+00 -.638E-01 -.312E+03   0.273E+00 0.849E-01 0.313E+03   -.529E-01 -.251E-01 -.488E+00   0.580E-02 0.778E-03 -.281E+00
   0.156E+00 0.101E+00 -.317E+03   -.233E-01 -.137E+00 0.317E+03   -.147E+00 0.326E-01 0.399E-01   0.742E-02 0.778E-03 -.277E+00
   0.512E+00 -.302E+00 -.316E+03   -.495E+00 0.236E+00 0.316E+03   -.220E-01 0.629E-01 0.220E-01   0.305E-02 0.630E-03 -.275E+00
   0.115E+00 -.115E+00 -.315E+03   -.233E+00 0.139E-01 0.315E+03   0.119E+00 0.943E-01 -.973E-01   0.878E-03 0.978E-03 -.278E+00
   0.366E+00 -.295E+00 -.266E+03   -.346E+00 0.188E+00 0.266E+03   -.800E-02 0.110E+00 -.127E+00   -.779E-02 -.895E-03 -.251E+00
   -.129E+01 -.825E-01 -.266E+03   0.108E+01 0.669E-01 0.266E+03   0.209E+00 0.215E-01 -.293E-01   -.311E-02 -.217E-02 -.256E+00
   0.770E+00 0.263E+00 -.266E+03   -.650E+00 -.160E+00 0.266E+03   -.105E+00 -.972E-01 -.422E-01   -.725E-02 -.993E-03 -.253E+00
   0.404E+00 0.473E+00 -.266E+03   -.247E+00 -.395E+00 0.266E+03   -.145E+00 -.751E-01 -.771E-03   -.459E-02 -.225E-03 -.256E+00
   -.302E+00 0.135E+00 -.266E+03   0.243E+00 -.770E-01 0.266E+03   0.638E-01 -.547E-01 -.125E+00   -.413E-02 0.711E-03 -.252E+00
   0.127E+00 -.196E-01 -.121E+03   -.128E+00 0.461E-01 0.121E+03   -.311E-02 -.110E-01 0.627E-01   0.259E-03 -.200E-03 -.232E+00
   0.146E+00 -.136E+00 -.121E+03   -.174E+00 0.130E+00 0.121E+03   0.392E-02 -.404E-02 -.549E-01   0.983E-03 -.127E-03 -.233E+00
   -.587E-01 -.101E+00 -.121E+03   0.781E-01 0.897E-01 0.122E+03   -.266E-02 0.788E-02 0.108E+00   0.111E-02 -.355E-04 -.231E+00
   -.409E-01 -.704E-02 -.121E+03   0.115E+00 0.115E-01 0.121E+03   -.182E-01 0.219E-02 -.229E-01   0.170E-02 -.299E-03 -.231E+00
   -.172E+00 0.237E-01 -.121E+03   0.129E+00 -.375E-01 0.121E+03   0.175E-01 -.367E-02 -.903E-01   0.159E-02 0.115E-03 -.233E+00
   -.122E-02 -.288E-02 -.722E+02   -.871E-02 0.510E-01 0.724E+02   -.347E-03 -.425E-01 -.387E-01   -.854E-03 -.601E-04 -.220E+00
   0.124E+00 -.433E-01 -.724E+02   -.986E-01 0.171E-01 0.726E+02   -.183E-01 0.975E-02 -.248E-01   -.138E-02 0.587E-03 -.220E+00
   -.478E-01 -.781E-01 -.728E+02   0.278E-01 0.472E-01 0.729E+02   0.249E-01 0.228E-01 0.460E-01   -.136E-02 -.170E-03 -.219E+00
   -.140E+00 0.226E-01 -.724E+02   0.132E+00 0.229E-02 0.726E+02   0.372E-02 -.168E-01 0.104E-02   -.133E-02 0.786E-03 -.220E+00
   0.116E+00 -.193E-01 -.724E+02   -.107E+00 0.177E-01 0.725E+02   -.201E-01 -.107E-01 0.126E-01   -.112E-02 0.187E-03 -.222E+00
   -.143E+00 0.612E-01 0.723E+02   0.134E+00 -.422E-01 -.721E+02   0.928E-02 -.175E-01 0.957E-02   0.301E-02 0.464E-04 -.200E+00
   0.143E+00 -.812E-01 0.727E+02   -.128E+00 0.564E-01 -.725E+02   -.134E-01 0.276E-01 0.466E-01   -.214E-02 -.317E-03 -.198E+00
   0.878E-01 -.214E+00 0.726E+02   -.776E-01 0.156E+00 -.724E+02   -.951E-02 0.602E-01 0.329E-01   0.381E-03 0.108E-02 -.198E+00
   0.144E+00 0.259E+00 0.724E+02   -.106E+00 -.206E+00 -.722E+02   -.384E-01 -.527E-01 0.400E-01   -.109E-02 0.358E-03 -.200E+00
   -.183E+00 0.231E+00 0.726E+02   0.168E+00 -.172E+00 -.724E+02   0.148E-01 -.578E-01 0.499E-01   0.786E-03 -.372E-03 -.202E+00
   -.573E-01 0.121E+00 0.121E+03   0.972E-01 -.108E+00 -.121E+03   -.438E-01 -.133E-01 0.102E+00   0.257E-02 -.248E-03 -.200E+00
   -.278E-01 0.877E-01 0.122E+03   -.841E-02 -.810E-01 -.122E+03   0.367E-01 -.735E-02 0.875E-02   -.197E-02 0.157E-03 -.200E+00
   -.147E+00 -.162E+00 0.122E+03   0.138E+00 0.106E+00 -.122E+03   0.633E-02 0.531E-01 -.444E-02   0.130E-02 0.474E-03 -.202E+00
   0.255E+00 -.606E-02 0.121E+03   -.198E+00 0.135E-01 -.121E+03   -.581E-01 -.896E-02 0.166E+00   0.734E-03 0.560E-03 -.196E+00
   -.643E-01 -.444E-01 0.121E+03   -.287E-01 0.309E-01 -.121E+03   0.936E-01 0.130E-01 0.125E+00   -.218E-02 0.322E-03 -.199E+00
   -.532E+00 -.286E+00 0.265E+03   0.362E+00 0.244E+00 -.265E+03   0.166E+00 0.445E-01 0.444E-01   0.861E-02 0.433E-03 -.137E+00
   0.116E+01 0.707E-01 0.266E+03   -.948E+00 -.540E-01 -.266E+03   -.206E+00 -.180E-01 0.558E-01   -.268E-02 0.396E-02 -.134E+00
   -.853E+00 -.286E+00 0.266E+03   0.729E+00 0.186E+00 -.266E+03   0.116E+00 0.104E+00 0.105E+00   0.116E-01 0.525E-03 -.140E+00
   -.273E+00 0.525E+00 0.266E+03   0.266E+00 -.360E+00 -.266E+03   0.408E-02 -.164E+00 0.182E+00   0.508E-02 0.206E-02 -.142E+00
   0.474E+00 -.251E+00 0.267E+03   -.386E+00 0.177E+00 -.267E+03   -.806E-01 0.778E-01 0.155E+00   -.433E-02 -.110E-02 -.140E+00
   -.370E+00 0.279E+00 0.317E+03   0.345E+00 -.244E+00 -.317E+03   0.224E-01 -.367E-01 -.493E-02   -.184E-02 -.216E-02 -.107E+00
   0.917E-01 0.924E-02 0.312E+03   -.150E+00 -.436E-01 -.312E+03   0.568E-01 0.356E-01 0.531E+00   -.229E-03 -.215E-02 -.977E-01
   -.180E-01 -.140E+00 0.316E+03   -.108E+00 0.167E+00 -.316E+03   0.136E+00 -.288E-01 0.753E-01   -.113E-01 -.191E-03 -.105E+00
   0.439E+00 0.932E-02 0.314E+03   -.338E+00 -.761E-01 -.314E+03   -.951E-01 0.676E-01 0.418E+00   -.112E-01 -.445E-03 -.974E-01
   -.182E+00 -.368E-02 0.315E+03   0.275E+00 0.873E-01 -.315E+03   -.104E+00 -.850E-01 0.158E+00   0.674E-02 -.523E-03 -.105E+00
   -.279E+00 0.101E+01 0.459E+03   0.362E+00 -.750E+00 -.459E+03   -.884E-01 -.252E+00 -.403E+00   0.728E-02 -.691E-02 0.538E-01
   0.102E+01 -.151E+01 0.459E+03   -.432E+00 0.143E+01 -.459E+03   -.571E+00 0.742E-01 -.159E+00   -.123E-01 0.585E-02 0.438E-01
   -.790E+00 -.140E+01 0.458E+03   0.319E+00 0.120E+01 -.458E+03   0.449E+00 0.201E+00 -.115E+00   0.234E-01 0.708E-02 0.456E-01
   0.123E+01 0.727E+00 0.455E+03   -.110E+01 -.671E+00 -.455E+03   -.140E+00 -.553E-01 -.197E+00   0.132E-01 -.233E-03 0.442E-01
   -.129E+01 0.137E+01 0.458E+03   0.101E+01 -.118E+01 -.458E+03   0.283E+00 -.180E+00 -.247E+00   -.441E-03 -.123E-02 0.429E-01
   -.234E+00 -.203E+01 0.516E+03   0.228E+00 0.178E+01 -.516E+03   0.306E-01 0.249E+00 -.918E-01   -.236E-01 -.584E-03 0.110E+00
   -.100E+01 0.402E+00 0.518E+03   0.855E+00 -.561E+00 -.517E+03   0.145E+00 0.162E+00 -.163E+01   -.205E-02 -.409E-02 0.116E+00
   -.129E+01 0.124E+00 0.509E+03   0.762E+00 0.739E-01 -.508E+03   0.519E+00 -.194E+00 -.740E+00   0.840E-02 -.310E-02 0.118E+00
   0.133E+01 0.971E+00 0.516E+03   -.112E+01 -.853E+00 -.516E+03   -.219E+00 -.113E+00 -.102E+00   0.507E-02 -.327E-02 0.113E+00
   0.722E+00 -.269E+00 0.510E+03   -.344E+00 0.194E+00 -.510E+03   -.363E+00 0.710E-01 -.807E+00   -.186E-01 0.457E-02 0.113E+00
   -.132E-01 0.394E-01 0.627E+01   -.107E-13 0.351E-13 0.284E-12   0.174E-01 -.378E-01 0.179E+01   0.549E-03 0.920E-03 -.806E+01

 POSITION                                       TOTAL-FORCE (eV/Angst)
      7.54150      1.96014      2.77412         0.003583      0.008076     -0.004899
      5.03654      3.77843      2.71688         0.004081     -0.002033     -0.008680
      1.72559      3.25531      2.82816         0.000292      0.000988     -0.013030
      3.99332      0.35640      2.82345         0.003135      0.003899     -0.015150
      0.68940     -0.01272      2.70574        -0.004619      0.003154     -0.004938
      7.89741     -1.14512      2.82635        -0.007643      0.001815     -0.003827
      1.76840      3.05412     20.75045         0.000005      0.000138     -0.009547
      7.56808      1.25682     20.75522        -0.001270     -0.008109     -0.007083
      5.07985      3.38375     20.87422        -0.002464     -0.007129      0.002981
      4.06676      0.09832     20.74373         0.004085      0.002207     -0.008635
      0.73425      6.36255     20.86290         0.004135     -0.002580     -0.001057
      7.86036     -1.83497     20.79210        -0.001023     -0.003741     -0.002087
      5.77817      3.34108      0.01851        -0.009163     -0.001090     -0.010979
      1.92754      3.32248      0.04946        -0.001695     -0.002693      0.000848
      3.85374      0.00231      0.05760        -0.002174      0.003921     -0.000839
      0.03350      6.66957     40.13328         0.004285     -0.002599     -0.006728
      7.73737     -0.00860      0.09525        -0.002888     -0.002717     -0.003230
      5.79387      1.09343     39.39780        -0.001084     -0.000185      0.010311
      0.00555      4.43020     39.37348         0.002257      0.002834      0.014170
      7.73275     -2.24095     39.39864         0.003202      0.004473      0.010198
      3.84408      4.46531     39.36845         0.004945      0.000965      0.007362
      1.94800      1.11438     39.33205         0.001647      0.001981      0.009754
      3.85600      4.46259     37.00012        -0.006735     -0.003162     -0.013204
      1.94052      1.11253     36.97628        -0.002269     -0.003317     -0.013598
      5.80611      1.10571     37.01836        -0.006647     -0.002619     -0.017303
      7.72903     -2.24185     37.01747        -0.001592     -0.002069     -0.018091
      9.65254      1.09921     37.00311         0.001820     -0.005822     -0.013933
      7.72775      2.22336     36.20609         0.004154      0.002527      0.015703
      3.87708      2.22889     36.20357        -0.001761      0.003739      0.010687
      9.65701     -1.12712     36.20085         0.007235      0.005647      0.010578
      1.92235      5.56948     36.19995         0.007178      0.003285      0.011162
      5.79714     -1.12252     36.20939        -0.000094      0.004123      0.012147
      7.72869      2.23105     33.83435        -0.003598      0.015296      0.087362
      0.00000      2.23108     33.83435        -0.023107     -0.010554      0.050939
      5.79652     -1.11558     33.83435         0.017792     -0.003622      0.104415
      3.86435      2.23105     33.83435         0.057991      0.006343      0.068912
      1.93217      5.57767     33.83435        -0.024367     -0.017439      0.043510
      1.93217      3.34659     33.04554        -0.011196      0.005438     -0.070465
      7.72869     -0.00004     33.04554         0.005944     -0.015968     -0.069174
      5.79652      3.34659     33.04554         0.003370     -0.008250     -0.054426
      3.86435     -0.00004     33.04554        -0.005639      0.008848     -0.052558
      0.00000      0.00000     33.04554        -0.012557     -0.012131     -0.063795
      5.80137      3.34315     30.68018         0.003580      0.001496      0.002518
      1.93306      3.34177     30.67459         0.000276      0.002568      0.003031
      3.86464     -0.00193     30.67624         0.001057      0.002860      0.002031
      9.65897      3.33929     30.67877        -0.000845      0.001102      0.004064
      7.73155     -0.00628     30.67624         0.000592      0.000415      0.001876
      5.80083      1.11257     29.88213        -0.001371     -0.000368     -0.004188
      9.66029      1.11069     29.87263        -0.001523     -0.000490     -0.003434
      7.73060     -2.23825     29.87464        -0.001189     -0.001824     -0.007021
      3.86992      4.45845     29.88482        -0.000831     -0.000949     -0.000099
      1.92581      1.10886     29.87976        -0.001687     -0.000129     -0.000632
      3.87768      4.46066     27.52089         0.004407      0.002592      0.008557
      1.92227      1.10868     27.51355         0.000720      0.002683      0.009784
      5.80244      1.11838     27.51582         0.002578      0.003855      0.007845
      7.73082     -2.23502     27.50418         0.002219      0.002871      0.006506
      0.00143      4.46176     27.50124         0.002292      0.003430      0.008279
      7.72906      2.22976     26.69079        -0.003632     -0.003953     -0.009740
      3.85802      2.22584     26.74243        -0.002331     -0.000932     -0.010732
      9.65440     -1.11489     26.70237        -0.001400     -0.001320     -0.012278
      1.94705      5.56835     26.72149        -0.004997      0.000334     -0.010668
      5.80549     -1.10770     26.71518        -0.003816     -0.001931     -0.011315
      7.72781      2.22604     24.30551         0.001637      0.000869      0.011679
      0.00833      2.23966     24.32593         0.000863      0.002958      0.011056
      5.79155     -1.09681     24.34489         0.000679      0.004638      0.013586
      3.84971      2.21953     24.38562        -0.003178      0.001055      0.010527
      1.95779      5.56201     24.35605         0.008496     -0.000301      0.009965
      1.94386      3.33538     23.51918         0.000279      0.005193     -0.002793
      7.72459     -0.01649     23.47441        -0.002816     -0.001107     -0.008631
      5.76141      3.35840     23.58408        -0.001041      0.001017     -0.006372
      3.87098      0.01216     23.52299        -0.003012      0.000714     -0.001095
      0.03023     -0.00643     23.56412        -0.003555      0.000786     -0.006086
    total drift:                                0.004749      0.002442     -0.000372

 mean value of Nose-termostat <S>:     1.000 mean value of <T> :     0.000
 mean temperature <T/S>/<1/S>  :     0.000

 INDMIN                                  72
 Position of INDMIN                  11.876
 left and right vacuum level          4.996         6.450
 Grid indexs of vacuum                   68            76
 Position of vacuum                  11.207        12.545